TOUR_SECTION
1
171
4
47
201
95
91
189
110
20
35
126
16
174
139
62
5
142
88
146
131
38
181
68
81
44
120
193
156
6
14
148
144
96
194
54
42
154
107
31
162
106
43
70
77
53
105
32
69
84
122
195
147
134
180
37
184
86
199
133
149
64
22
45
169
175
57
85
128
166
130
92
3
100
80
40
109
113
141
73
129
145
165
87
197
102
158
78
82
103
150
51
75
24
19
7
10
192
79
127
104
159
39
66
183
61
187
121
119
117
176
185
41
71
52
50
76
135
28
152
83
116
163
15
140
168
153
124
190
172
30
115
63
200
178
191
12
155
182
114
29
108
186
93
188
125
49
27
72
177
123
112
21
60
8
99
25
164
97
89
173
90
58
151
111
36
26
11
198
101
48
179
46
167
13
170
196
136
23
67
137
74
138
34
98
118
33
59
160
161
157
2
94
65
55
17
143
9
132
56
18
-1
EOF